#
# This file specifies which domain_bits and range_bits combinations will
# have template optimizations enabled when PFSS is compiled.
#

# domain_bits range_bits

8 8
8 16
8 32
8 64

16 8
16 16
16 32
16 64

20 8
20 16
20 32
20 64

24 8
24 16
24 32
24 64

32 8
32 16
32 32
32 64

64 8
64 16
64 32
64 64

80 8
80 16
80 32
80 64

128 8
128 16
128 32
128 64
